c description: Random 3-CNF over 15 variables and 30 clauses
c generator: CNFgen (0.9.0)
c copyright: (C) 2012-2020 Massimo Lauria <massimo.lauria@uniroma1.it>
c url: https://massimolauria.net/cnfgen
c
p cnf 15 30
2 -10 -15 0
-1 4 -6 0
-1 -4 -12 0
1 9 -13 0
-5 -9 -11 0
1 -10 -14 0
2 -6 15 0
-9 11 15 0
-2 13 -14 0
1 -9 14 0
-1 -7 8 0
-5 8 12 0
-8 -13 -14 0
-4 5 -15 0
-3 -5 12 0
1 8 9 0
2 -4 13 0
-6 -8 -13 0
-9 10 15 0
-7 -10 -13 0
-2 -6 15 0
4 -6 -7 0
2 4 -14 0
-3 -5 -6 0
5 6 13 0
-1 10 12 0
-3 9 -12 0
-5 -12 -15 0
2 9 14 0
2 3 -13 0